
Gurobi 10.0.3 (linux64, gurobi_cl) logging started Thu Nov  2 11:36:27 2023

Set parameter Username
Set parameter TimeLimit to value 3600
Set parameter LogFile to value "RCPSP_749.log"
Set parameter Threads to value 32
Academic license - for non-commercial use only - expires 2024-10-30
Using license file /home/jrivera6/gurobi-licenses/v1003/compute-0-34/gurobi.lic

Gurobi Optimizer version 10.0.3 build v10.0.3rc0 (linux64)
Copyright (c) 2023, Gurobi Optimization, LLC

Read MPS format model from file RCPSP_749.mps
Reading time = 0.02 seconds
RCPSP_749: 19643 rows, 7750 columns, 68318 nonzeros

CPU model: Intel(R) Xeon(R) Gold 6130 CPU @ 2.10GHz, instruction set [SSE2|AVX|AVX2|AVX512]
Thread count: 32 physical cores, 32 logical processors, using up to 32 threads

Optimize a model with 19643 rows, 7750 columns and 68318 nonzeros
Model fingerprint: 0x2f0c7a89
Variable types: 62 continuous, 7688 integer (7688 binary)
Coefficient statistics:
  Matrix range     [1e+00, 3e+02]
  Objective range  [1e+00, 1e+00]
  Bounds range     [1e+00, 1e+00]
  RHS range        [1e+00, 3e+02]
Presolve removed 8450 rows and 3125 columns
Presolve time: 3.83s
Presolved: 11193 rows, 4625 columns, 40169 nonzeros
Variable types: 61 continuous, 4564 integer (4564 binary)

Root relaxation: objective 7.600000e+01, 1521 iterations, 0.03 seconds (0.01 work units)

    Nodes    |    Current Node    |     Objective Bounds      |     Work
 Expl Unexpl |  Obj  Depth IntInf | Incumbent    BestBd   Gap | It/Node Time

     0     0   76.00000    0   16          -   76.00000      -     -    4s
     0     0   76.00000    0  160          -   76.00000      -     -    6s
     0     0   76.00000    0  168          -   76.00000      -     -    6s
H    0     0                      79.0000000   76.00000  3.80%     -    7s
     0     0   76.00000    0    4   79.00000   76.00000  3.80%     -    7s
     0     0   76.00000    0    5   79.00000   76.00000  3.80%     -    7s
     0     0   76.00000    0   54   79.00000   76.00000  3.80%     -    7s
H    0     0                      76.0000000   76.00000  0.00%     -   11s
     0     0   76.00000    0  457   76.00000   76.00000  0.00%     -   11s

Explored 1 nodes (6436 simplex iterations) in 11.89 seconds (3.22 work units)
Thread count was 32 (of 32 available processors)

Solution count 2: 76 79 

Optimal solution found (tolerance 1.00e-04)
Best objective 7.600000000000e+01, best bound 7.600000000000e+01, gap 0.0000%

Wrote result file 'RCPSP_749.sol'

